BEGIN IONS
Name=5-Oxo-L-prolyl-L-proline
IONMODE=Positive
PEPMASS=227.1029
Formula=C10H14N2O4
InChIKey=PFEJJYZYEFRQEA-BQBZGAKWSA-N
70.06510925 0.2242
84.04441071 0.4665
84.08078766 0.1109
110.0712585 0.129
116.0706024 1.0
122.0710449 0.0119
152.0817261 0.0122
156.0767822 0.1611
164.0820465 0.0292
180.0766449 0.0217
181.0970917 0.1587
181.1082001 0.0367
182.0922241 0.0136
192.0770416 0.0101
209.0923004 0.1204
210.087265 0.1101
210.1318512 0.0492
227.102478 0.6041
END IONS

BEGIN IONS
Name=4-Dimethylamino-butyric acid
IONMODE=Positive
PEPMASS=132.1018
Formula=C6H13NO2
InChIKey=OXOWTLDONRGYOT-UHFFFAOYSA-N
86.060112 0.015
86.09645844 0.034
87.04406738 0.4708
114.0913239 0.1999
132.1018524 1.0
END IONS

BEGIN IONS
Name=Oleoyl-CoA
IONMODE=Positive
PEPMASS=1032.369
Formula=C39H68N7O17P3S
InChIKey=XDUHQPOXLUAVEE-BPMMELMSSA-N
57.13097382 0.0127
58.29123306 0.0159
58.37513733 0.0446
60.99301147 0.0141
65.04309845 0.0163
73.68962097 0.0209
81.06990051 0.0179
88.021698 0.0273
90.62520599 0.0139
91.83292389 0.0149
95.08570099 0.0151
99.05551147 0.0276
107.5490494 0.0143
112.1536942 0.0149
112.7732239 0.0148
112.8959427 0.0336
114.037323 0.0303
120.3031845 0.0126
132.0482635 0.0269
136.0619049 0.2465
140.5385284 0.0139
142.0863495 0.0417
144.0647125 0.0153
159.0587158 0.1153
160.901413 0.0203
175.0536194 0.0195
176.8753967 0.0739
178.8731384 0.022
184.0968628 0.0479
209.9938202 0.0153
212.4147491 0.0148
243.1168518 0.0234
261.1271057 0.1789
265.2528687 0.046
330.0598755 0.0303
410.0279541 0.0151
423.3042297 0.1106
428.0369568 0.234
465.6217651 0.0139
525.3718872 1.0
526.375 0.0561
809.0755615 0.0164
END IONS

BEGIN IONS
Name=N5-acetylornithine
IONMODE=Positive
PEPMASS=175.1077
Formula=C7H14N2O3
InChIKey=SRXKAYJJGAAOBP-UHFFFAOYSA-N
60.05571365 0.0142
70.06519318 0.18
72.04441833 0.0101
84.04441071 0.0127
84.08083344 0.0309
88.02166748 0.0133
102.02034 0.0103
104.0708084 0.0215
112.0757904 1.0
116.0707626 0.0581
129.0313416 0.039
129.1024017 0.0713
130.049881 0.0117
130.0864868 0.0181
132.9584198 0.0434
132.9693604 0.0169
133.0347748 0.018
140.0707855 0.015
150.9690247 0.0237
157.0972443 0.011
158.0450592 0.016
175.0367737 0.094
175.0456238 0.0735
175.1080322 0.3467
END IONS


BEGIN IONS
Name=N-Acetylhistidine
IONMODE=Positive
PEPMASS=198.0873
Formula=C8H11N3O3
InChIKey=KBOJOGQFRVVWBH-ZETCQYMHSA-N
52.54108047 0.0178
52.93309021 0.0168
60.24642563 0.0181
60.71604538 0.0187
63.1921463 0.0164
70.06513214 0.1863
71.24808502 0.0155
74.25805664 0.0179
80.91286469 0.0188
95.06021118 0.0392
110.0712738 1.0
112.086441 0.0219
134.0595398 0.0177
152.0818176 0.6221
156.0767822 0.5951
157.9747467 0.0234
164.0823669 0.0161
165.6017456 0.016
170.0661469 0.0306
175.98526 0.0432
176.5081177 0.0164
180.0768738 0.1657
181.121582 0.0151
198.0872955 0.8065
END IONS